============================[ Problem Statistics ]=============================|                                                                             ||  Number of variables:          4242                                         ||  Number of clauses:           10190                                         ||  Parse time:                   0.60 s                                       ||                                                                             |============================[ Search Statistics ]==============================| Conflicts |          ORIGINAL         |          LEARNT          | Progress ||           |    Vars  Clauses Literals |    Limit  Clauses Lit/Cl |          |===============================================================================|       100 |    1591     6395   921846 |     2344      100     53 | 62.501 % ||       250 |    1591     6395   921846 |     2579      250     75 | 62.495 % |===============================================================================restarts              : 3conflicts             : 319            (355 /sec)decisions             : 583            (0.00 % random) (648 /sec)propagations          : 11890          (13226 /sec)conflict literals     : 25478          (94.69 % deleted)CPU time              : 0.899 sSATISFIABLE